
Gurobi 12.0.2 (win64) logging started Wed Jun  4 16:57:33 2025

Set parameter LogFile to value "C:\Ioana\_uni\honours\slp\algorithm\Main_files\results\others\fatty_acids\Task_010_Sample001_irr_gurobi.log"
Gurobi Optimizer version 12.0.2 build v12.0.2rc0 (win64 - Windows 11.0 (26100.2))

CPU model: Intel(R) Core(TM) Ultra 5 125H, instruction set [SSE2|AVX|AVX2]
Thread count: 14 physical cores, 18 logical processors, using up to 18 threads

Non-default parameters:
TimeLimit  2200

Optimize a model with 47226 rows, 34494 columns and 146681 nonzeros
Model fingerprint: 0xebaecea2
Variable types: 17249 continuous, 17245 integer (17245 binary)
Coefficient statistics:
  Matrix range     [1e-04, 8e+04]
  Objective range  [2e-04, 9e-01]
  Bounds range     [1e+00, 1e+03]
  RHS range        [1e+00, 1e+00]
Found heuristic solution: objective 0.0183824
Presolve removed 47226 rows and 34494 columns
Presolve time: 0.30s
Presolve: All rows and columns removed

Explored 0 nodes (0 simplex iterations) in 0.33 seconds (0.24 work units)
Thread count was 1 (of 18 available processors)

Solution count 1: 0.0183824 

Optimal solution found (tolerance 1.00e-04)
Best objective 1.838235294118e-02, best bound 1.838235294118e-02, gap 0.0000%

Gurobi 12.0.2 (win64) logging started Thu Jun  5 15:33:57 2025

Set parameter LogFile to value "C:\Ioana\_uni\honours\slp\algorithm\Main_files\results\others\fatty_acids\Task_010_Sample001_irr_gurobi.log"
Gurobi Optimizer version 12.0.2 build v12.0.2rc0 (win64 - Windows 11.0 (26100.2))

CPU model: Intel(R) Core(TM) Ultra 5 125H, instruction set [SSE2|AVX|AVX2]
Thread count: 14 physical cores, 18 logical processors, using up to 18 threads

Non-default parameters:
TimeLimit  2200

Optimize a model with 47226 rows, 34494 columns and 146681 nonzeros
Model fingerprint: 0xebaecea2
Variable types: 17249 continuous, 17245 integer (17245 binary)
Coefficient statistics:
  Matrix range     [1e-04, 8e+04]
  Objective range  [2e-04, 9e-01]
  Bounds range     [1e+00, 1e+03]
  RHS range        [1e+00, 1e+00]
Found heuristic solution: objective 0.0183824
Presolve removed 47226 rows and 34494 columns
Presolve time: 0.32s
Presolve: All rows and columns removed

Explored 0 nodes (0 simplex iterations) in 0.32 seconds (0.24 work units)
Thread count was 1 (of 18 available processors)

Solution count 1: 0.0183824 

Optimal solution found (tolerance 1.00e-04)
Best objective 1.838235294118e-02, best bound 1.838235294118e-02, gap 0.0000%
